\ LP format - for model browsing. Use MPS format to capture full model detail.
Maximize
  44.92857142857143 z1 + 24 z2 + 38.71428571428572 z3 + 12.42857142857143 z4
   + 26 z5 + 19.57142857142857 z6 + 18.64285714285717 z7 + 11 z8
   + 17.21428571428572 z9 + 33 z10 + 12.42857142857143 z11 + 46 z12
   + 18.64285714285714 z13 + 31.07142857142858 z14 + 39 z15
   + 38.71428571428572 z16 + 32.5 z17 + 41 z18 + 45.28571428571426 z19
   + 38.71428571428572 z20
Subject To
 constraint1: 47 z1 + 24 z2 + 41 z3 + 14 z4 + 26 z5 + 23 z6 + 19 z7 + 11 z8
   + 18 z9 + 33 z10 + 13 z11 + 46 z12 + 20 z13 + 32 z14 + 41 z15 + 39 z16
   + 36 z17 + 41 z18 + 48 z19 + 40 z20 <= 200
 constraints2_2_&_18: z2 - z18 = 0
 constraints2_5_&_15: z5 - z15 = 0
 constraints2_6_&_10: z6 - z10 = 0
 constraints2_12_&_19: z12 - z19 = 0
 constraints3_1_|_9: z1 + z9 <= 1
 constraints3_1_|_12: z1 + z12 <= 1
 constraints3_2_|_5: z2 + z5 <= 1
 constraints3_2_|_6: z2 + z6 <= 1
 constraints3_2_|_11: z2 + z11 <= 1
 constraints3_2_|_12: z2 + z12 <= 1
 constraints3_2_|_20: z2 + z20 <= 1
 constraints3_3_|_11: z3 + z11 <= 1
 constraints3_5_|_12: z5 + z12 <= 1
 constraints3_7_|_16: z7 + z16 <= 1
 constraints3_9_|_14: z9 + z14 <= 1
 constraints3_11_|_18: z11 + z18 <= 1
 constraints3_12_|_15: z12 + z15 <= 1
 constraints3_12_|_16: z12 + z16 <= 1
 constraints3_18_|_20: z18 + z20 <= 1
Bounds
Binaries
 z1 z2 z3 z4 z5 z6 z7 z8 z9 z10 z11 z12 z13 z14 z15 z16 z17 z18 z19 z20
End
